(set-option :produce-models true); benchmark generated from python API
(set-info :status unknown)
(declare-fun l_1_0_1 () Real)
(declare-fun l_1_0_2 () Real)
(declare-fun l_1_0_3 () Real)
(declare-fun l_1_0_6 () Real)
(declare-fun l_1_0_5 () Real)
(declare-fun l_1_0_4 () Real)
(declare-fun l_1_1_1 () Real)
(declare-fun l_1_1_2 () Real)
(declare-fun l_1_1_3 () Real)
(declare-fun l_1_1_8 () Real)
(declare-fun l_1_1_7 () Real)
(declare-fun l_1_1_6 () Real)
(declare-fun l_1_1_5 () Real)
(declare-fun l_1_1_4 () Real)
(declare-fun l_1_2_1 () Real)
(declare-fun l_1_2_2 () Real)
(declare-fun l_1_2_3 () Real)
(declare-fun l_1_2_9 () Real)
(declare-fun l_1_2_8 () Real)
(declare-fun l_1_2_7 () Real)
(declare-fun l_1_2_6 () Real)
(declare-fun l_1_2_5 () Real)
(declare-fun l_1_2_4 () Real)
(declare-fun l_1_2_10 () Real)
(declare-fun l_1_3_1 () Real)
(declare-fun l_1_3_2 () Real)
(declare-fun l_1_3_3 () Real)
(declare-fun l_1_3_9 () Real)
(declare-fun l_1_3_8 () Real)
(declare-fun l_1_3_7 () Real)
(declare-fun l_1_3_6 () Real)
(declare-fun l_1_3_5 () Real)
(declare-fun l_1_3_4 () Real)
(declare-fun l_1_3_12 () Real)
(declare-fun l_1_3_11 () Real)
(declare-fun l_1_3_10 () Real)
(declare-fun l_1_4_2 () Real)
(declare-fun l_1_4_1 () Real)
(declare-fun l_1_4_3 () Real)
(declare-fun l_1_4_9 () Real)
(declare-fun l_1_4_8 () Real)
(declare-fun l_1_4_7 () Real)
(declare-fun l_1_4_6 () Real)
(declare-fun l_1_4_5 () Real)
(declare-fun l_1_4_4 () Real)
(declare-fun l_1_4_14 () Real)
(declare-fun l_1_4_13 () Real)
(declare-fun l_1_4_12 () Real)
(declare-fun l_1_4_11 () Real)
(declare-fun l_1_4_10 () Real)
(declare-fun l_1_5_2 () Real)
(declare-fun l_1_5_1 () Real)
(declare-fun l_1_5_3 () Real)
(declare-fun l_1_5_9 () Real)
(declare-fun l_1_5_8 () Real)
(declare-fun l_1_5_7 () Real)
(declare-fun l_1_5_6 () Real)
(declare-fun l_1_5_5 () Real)
(declare-fun l_1_5_4 () Real)
(declare-fun l_1_5_16 () Real)
(declare-fun l_1_5_15 () Real)
(declare-fun l_1_5_14 () Real)
(declare-fun l_1_5_13 () Real)
(declare-fun l_1_5_12 () Real)
(declare-fun l_1_5_11 () Real)
(declare-fun l_1_5_10 () Real)
(declare-fun l_1_6_6 () Real)
(declare-fun l_1_6_5 () Real)
(declare-fun l_1_6_2 () Real)
(declare-fun l_1_6_1 () Real)
(declare-fun l_1_6_4 () Real)
(declare-fun l_1_6_3 () Real)
(declare-fun l_1_6_7 () Real)
(declare-fun l_1_6_9 () Real)
(declare-fun l_1_6_8 () Real)
(declare-fun l_1_6_10 () Real)
(declare-fun l_1_7_1 () Real)
(declare-fun l_1_7_2 () Real)
(declare-fun l_1_7_3 () Real)
(declare-fun l_1_7_4 () Real)
(declare-fun l_1_7_5 () Real)
(declare-fun l_1_7_6 () Real)
(declare-fun l_1_7_7 () Real)
(declare-fun l_1_7_8 () Real)
(declare-fun l_1_7_9 () Real)
(declare-fun l_1_7_10 () Real)
(declare-fun l_1_7_11 () Real)
(declare-fun l_1_7_12 () Real)
(declare-fun l_1_8_6 () Real)
(declare-fun l_1_8_5 () Real)
(declare-fun l_1_8_2 () Real)
(declare-fun l_1_8_1 () Real)
(declare-fun l_1_8_8 () Real)
(declare-fun l_1_8_4 () Real)
(declare-fun l_1_8_3 () Real)
(declare-fun l_1_8_7 () Real)
(declare-fun l_1_8_9 () Real)
(declare-fun l_1_8_11 () Real)
(declare-fun l_1_8_10 () Real)
(declare-fun l_1_9_8 () Real)
(declare-fun l_1_9_2 () Real)
(declare-fun l_1_9_1 () Real)
(declare-fun l_1_9_6 () Real)
(declare-fun l_1_9_5 () Real)
(declare-fun l_1_9_4 () Real)
(declare-fun l_1_9_3 () Real)
(declare-fun l_1_9_7 () Real)
(declare-fun l_1_9_9 () Real)
(declare-fun l_1_9_13 () Real)
(declare-fun l_1_9_12 () Real)
(declare-fun l_1_9_11 () Real)
(declare-fun l_1_9_10 () Real)
(declare-fun l_1_10_5 () Real)
(declare-fun l_1_10_4 () Real)
(declare-fun l_1_10_3 () Real)
(declare-fun l_1_10_8 () Real)
(declare-fun l_1_10_6 () Real)
(declare-fun l_1_10_2 () Real)
(declare-fun l_1_10_1 () Real)
(declare-fun l_1_10_7 () Real)
(declare-fun l_1_10_9 () Real)
(declare-fun l_1_10_15 () Real)
(declare-fun l_1_10_14 () Real)
(declare-fun l_1_10_13 () Real)
(declare-fun l_1_10_12 () Real)
(declare-fun l_1_10_11 () Real)
(declare-fun l_1_10_10 () Real)
(declare-fun l_1_11_8 () Real)
(declare-fun l_1_11_4 () Real)
(declare-fun l_1_11_3 () Real)
(declare-fun l_1_11_5 () Real)
(declare-fun l_1_11_6 () Real)
(declare-fun l_1_11_2 () Real)
(declare-fun l_1_11_1 () Real)
(declare-fun l_1_11_7 () Real)
(declare-fun l_1_11_9 () Real)
(declare-fun l_1_11_17 () Real)
(declare-fun l_1_11_16 () Real)
(declare-fun l_1_11_15 () Real)
(declare-fun l_1_11_14 () Real)
(declare-fun l_1_11_13 () Real)
(declare-fun l_1_11_12 () Real)
(declare-fun l_1_11_11 () Real)
(declare-fun l_1_11_10 () Real)
(declare-fun l_1_12_6 () Real)
(declare-fun l_1_12_5 () Real)
(declare-fun l_1_12_2 () Real)
(declare-fun l_1_12_1 () Real)
(declare-fun l_1_12_8 () Real)
(declare-fun l_1_12_4 () Real)
(declare-fun l_1_12_3 () Real)
(declare-fun l_1_12_7 () Real)
(declare-fun l_1_12_9 () Real)
(declare-fun l_1_12_19 () Real)
(declare-fun l_1_12_18 () Real)
(declare-fun l_1_12_17 () Real)
(declare-fun l_1_12_16 () Real)
(declare-fun l_1_12_15 () Real)
(declare-fun l_1_12_14 () Real)
(declare-fun l_1_12_13 () Real)
(declare-fun l_1_12_12 () Real)
(declare-fun l_1_12_11 () Real)
(declare-fun l_1_12_10 () Real)
(declare-fun l_1_13_8 () Real)
(declare-fun l_1_13_6 () Real)
(declare-fun l_1_13_5 () Real)
(declare-fun l_1_13_2 () Real)
(declare-fun l_1_13_1 () Real)
(declare-fun l_1_13_4 () Real)
(declare-fun l_1_13_3 () Real)
(declare-fun l_1_13_7 () Real)
(declare-fun l_1_13_9 () Real)
(declare-fun l_1_13_21 () Real)
(declare-fun l_1_13_20 () Real)
(declare-fun l_1_13_19 () Real)
(declare-fun l_1_13_18 () Real)
(declare-fun l_1_13_17 () Real)
(declare-fun l_1_13_16 () Real)
(declare-fun l_1_13_15 () Real)
(declare-fun l_1_13_14 () Real)
(declare-fun l_1_13_13 () Real)
(declare-fun l_1_13_12 () Real)
(declare-fun l_1_13_11 () Real)
(declare-fun l_1_13_10 () Real)
(declare-fun l_1_14_6 () Real)
(declare-fun l_1_14_5 () Real)
(declare-fun l_1_14_2 () Real)
(declare-fun l_1_14_1 () Real)
(declare-fun l_1_14_4 () Real)
(declare-fun l_1_14_3 () Real)
(declare-fun l_1_14_8 () Real)
(declare-fun l_1_14_7 () Real)
(declare-fun l_1_14_9 () Real)
(declare-fun l_1_14_11 () Real)
(declare-fun l_1_14_10 () Real)
(declare-fun l_1_15_8 () Real)
(declare-fun l_1_15_2 () Real)
(declare-fun l_1_15_1 () Real)
(declare-fun l_1_15_4 () Real)
(declare-fun l_1_15_3 () Real)
(declare-fun l_1_15_6 () Real)
(declare-fun l_1_15_5 () Real)
(declare-fun l_1_15_7 () Real)
(declare-fun l_1_15_9 () Real)
(declare-fun l_1_15_13 () Real)
(declare-fun l_1_15_12 () Real)
(declare-fun l_1_15_11 () Real)
(declare-fun l_1_15_10 () Real)
(declare-fun l_1_16_5 () Real)
(declare-fun l_1_16_4 () Real)
(declare-fun l_1_16_3 () Real)
(declare-fun l_1_16_8 () Real)
(declare-fun l_1_16_6 () Real)
(declare-fun l_1_16_2 () Real)
(declare-fun l_1_16_1 () Real)
(declare-fun l_1_16_7 () Real)
(declare-fun l_1_16_9 () Real)
(declare-fun l_1_16_15 () Real)
(declare-fun l_1_16_14 () Real)
(declare-fun l_1_16_13 () Real)
(declare-fun l_1_16_12 () Real)
(declare-fun l_1_16_11 () Real)
(declare-fun l_1_16_10 () Real)
(declare-fun l_1_17_8 () Real)
(declare-fun l_1_17_4 () Real)
(declare-fun l_1_17_3 () Real)
(declare-fun l_1_17_5 () Real)
(declare-fun l_1_17_6 () Real)
(declare-fun l_1_17_2 () Real)
(declare-fun l_1_17_1 () Real)
(declare-fun l_1_17_7 () Real)
(declare-fun l_1_17_9 () Real)
(declare-fun l_1_17_17 () Real)
(declare-fun l_1_17_16 () Real)
(declare-fun l_1_17_15 () Real)
(declare-fun l_1_17_14 () Real)
(declare-fun l_1_17_13 () Real)
(declare-fun l_1_17_12 () Real)
(declare-fun l_1_17_11 () Real)
(declare-fun l_1_17_10 () Real)
(declare-fun l_1_18_6 () Real)
(declare-fun l_1_18_5 () Real)
(declare-fun l_1_18_2 () Real)
(declare-fun l_1_18_1 () Real)
(declare-fun l_1_18_4 () Real)
(declare-fun l_1_18_3 () Real)
(declare-fun l_1_18_8 () Real)
(declare-fun l_1_18_7 () Real)
(declare-fun l_1_18_9 () Real)
(declare-fun l_1_18_19 () Real)
(declare-fun l_1_18_18 () Real)
(declare-fun l_1_18_17 () Real)
(declare-fun l_1_18_16 () Real)
(declare-fun l_1_18_15 () Real)
(declare-fun l_1_18_14 () Real)
(declare-fun l_1_18_13 () Real)
(declare-fun l_1_18_12 () Real)
(declare-fun l_1_18_11 () Real)
(declare-fun l_1_18_10 () Real)
(declare-fun l_1_19_8 () Real)
(declare-fun l_1_19_6 () Real)
(declare-fun l_1_19_5 () Real)
(declare-fun l_1_19_2 () Real)
(declare-fun l_1_19_1 () Real)
(declare-fun l_1_19_4 () Real)
(declare-fun l_1_19_3 () Real)
(declare-fun l_1_19_7 () Real)
(declare-fun l_1_19_9 () Real)
(declare-fun l_1_19_21 () Real)
(declare-fun l_1_19_20 () Real)
(declare-fun l_1_19_19 () Real)
(declare-fun l_1_19_18 () Real)
(declare-fun l_1_19_17 () Real)
(declare-fun l_1_19_16 () Real)
(declare-fun l_1_19_15 () Real)
(declare-fun l_1_19_14 () Real)
(declare-fun l_1_19_13 () Real)
(declare-fun l_1_19_12 () Real)
(declare-fun l_1_19_11 () Real)
(declare-fun l_1_19_10 () Real)
(assert
 (= (- l_1_0_1) 0.0))
(assert
 (= (- l_1_0_1 l_1_0_2) 0.0))
(assert
 (= (- l_1_0_3) 0.0))
(assert
 (= (- (- (- l_1_0_4) l_1_0_5) (* l_1_0_6 l_1_0_6)) 0.0))
(assert
 (>= l_1_0_1 0.0))
(assert
 (>= l_1_0_2 0.0))
(assert
 (>= l_1_0_3 0.0))
(assert
 (>= l_1_0_4 0.0))
(assert
 (>= l_1_0_5 0.0))
(assert
 (>= l_1_0_6 0.0))
(assert
 (= (- l_1_1_1) 0.0))
(assert
 (= (- l_1_1_1 l_1_1_2) 0.0))
(assert
 (= (- l_1_1_3) 0.0))
(assert
 (let ((?x1118 (* l_1_1_8 l_1_1_8)))
 (= (- (- (- (- (- l_1_1_4) l_1_1_5) l_1_1_6) l_1_1_7) ?x1118) 0.0)))
(assert
 (>= l_1_1_1 0.0))
(assert
 (>= l_1_1_2 0.0))
(assert
 (>= l_1_1_3 0.0))
(assert
 (>= l_1_1_4 0.0))
(assert
 (>= l_1_1_5 0.0))
(assert
 (>= l_1_1_6 0.0))
(assert
 (>= l_1_1_7 0.0))
(assert
 (>= l_1_1_8 0.0))
(assert
 (= (- l_1_2_1) 0.0))
(assert
 (= (- l_1_2_1 l_1_2_2) 0.0))
(assert
 (= (- l_1_2_3) 0.0))
(assert
 (let ((?x1085 (- (- (- (* (- l_1_2_10) l_1_2_10) l_1_2_4) l_1_2_5) l_1_2_6)))
 (= (- (- (- ?x1085 l_1_2_7) l_1_2_8) l_1_2_9) 0.0)))
(assert
 (>= l_1_2_1 0.0))
(assert
 (>= l_1_2_2 0.0))
(assert
 (>= l_1_2_3 0.0))
(assert
 (>= l_1_2_4 0.0))
(assert
 (>= l_1_2_5 0.0))
(assert
 (>= l_1_2_6 0.0))
(assert
 (>= l_1_2_7 0.0))
(assert
 (>= l_1_2_8 0.0))
(assert
 (>= l_1_2_9 0.0))
(assert
 (>= l_1_2_10 0.0))
(assert
 (= (- l_1_3_1) 0.0))
(assert
 (= (- l_1_3_1 l_1_3_2) 0.0))
(assert
 (= (- l_1_3_3) 0.0))
(assert
 (let ((?x198 (- (- (- (- l_1_3_10) l_1_3_11) (* l_1_3_12 l_1_3_12)) l_1_3_4)))
 (let ((?x1047 (- (- (- (- (- ?x198 l_1_3_5) l_1_3_6) l_1_3_7) l_1_3_8) l_1_3_9)))
 (= ?x1047 0.0))))
(assert
 (>= l_1_3_1 0.0))
(assert
 (>= l_1_3_2 0.0))
(assert
 (>= l_1_3_3 0.0))
(assert
 (>= l_1_3_4 0.0))
(assert
 (>= l_1_3_5 0.0))
(assert
 (>= l_1_3_6 0.0))
(assert
 (>= l_1_3_7 0.0))
(assert
 (>= l_1_3_8 0.0))
(assert
 (>= l_1_3_9 0.0))
(assert
 (>= l_1_3_10 0.0))
(assert
 (>= l_1_3_11 0.0))
(assert
 (>= l_1_3_12 0.0))
(assert
 (= (- (- l_1_4_1 l_1_4_2) 1.0) 0.0))
(assert
 (= (- 1.0 l_1_4_1) 0.0))
(assert
 (= (- l_1_4_3) 0.0))
(assert
 (let ((?x994 (* l_1_4_14 l_1_4_14)))
 (let ((?x996 (- (- (- (- (- (- l_1_4_10) l_1_4_11) l_1_4_12) l_1_4_13) ?x994) l_1_4_4)))
 (let ((?x991 (- (- (- (- (- ?x996 l_1_4_5) l_1_4_6) l_1_4_7) l_1_4_8) l_1_4_9)))
 (= ?x991 0.0)))))
(assert
 (>= l_1_4_1 0.0))
(assert
 (>= l_1_4_2 0.0))
(assert
 (>= l_1_4_3 0.0))
(assert
 (>= l_1_4_4 0.0))
(assert
 (>= l_1_4_5 0.0))
(assert
 (>= l_1_4_6 0.0))
(assert
 (>= l_1_4_7 0.0))
(assert
 (>= l_1_4_8 0.0))
(assert
 (>= l_1_4_9 0.0))
(assert
 (>= l_1_4_10 0.0))
(assert
 (>= l_1_4_11 0.0))
(assert
 (>= l_1_4_12 0.0))
(assert
 (>= l_1_4_13 0.0))
(assert
 (>= l_1_4_14 0.0))
(assert
 (= (+ (- l_1_5_1 l_1_5_2) 1.0) 0.0))
(assert
 (= (- l_1_5_1) 0.0))
(assert
 (= (- l_1_5_3) 0.0))
(assert
 (let ((?x936 (* l_1_5_16 l_1_5_16)))
 (let ((?x934 (- (- (- (- (- l_1_5_10) l_1_5_11) l_1_5_12) l_1_5_13) l_1_5_14)))
 (let ((?x932 (- (- (- (- (- ?x934 l_1_5_15) ?x936) l_1_5_4) l_1_5_5) l_1_5_6)))
 (= (- (- (- ?x932 l_1_5_7) l_1_5_8) l_1_5_9) 0.0)))))
(assert
 (>= l_1_5_1 0.0))
(assert
 (>= l_1_5_2 0.0))
(assert
 (>= l_1_5_3 0.0))
(assert
 (>= l_1_5_4 0.0))
(assert
 (>= l_1_5_5 0.0))
(assert
 (>= l_1_5_6 0.0))
(assert
 (>= l_1_5_7 0.0))
(assert
 (>= l_1_5_8 0.0))
(assert
 (>= l_1_5_9 0.0))
(assert
 (>= l_1_5_10 0.0))
(assert
 (>= l_1_5_11 0.0))
(assert
 (>= l_1_5_12 0.0))
(assert
 (>= l_1_5_13 0.0))
(assert
 (>= l_1_5_14 0.0))
(assert
 (>= l_1_5_15 0.0))
(assert
 (>= l_1_5_16 0.0))
(assert
 (= (+ (- l_1_6_5 l_1_6_6) 1.0) 0.0))
(assert
 (= (- (+ (- (+ (- l_1_6_1) l_1_6_2) l_1_6_5) l_1_6_6) 1.0) 0.0))
(assert
 (= (- l_1_6_1 l_1_6_2) 0.0))
(assert
 (= (- (+ (* (- (/ 1.0 2.0)) l_1_6_3) (* (/ 1.0 2.0) l_1_6_4)) l_1_6_5) 0.0))
(assert
 (= (- l_1_6_3 l_1_6_4) 0.0))
(assert
 (= l_1_6_7 0.0))
(assert
 (= (- l_1_6_7) 0.0))
(assert
 (= (- (- (* (- l_1_6_10) l_1_6_10) l_1_6_8) l_1_6_9) 0.0))
(assert
 (>= l_1_6_1 0.0))
(assert
 (>= l_1_6_2 0.0))
(assert
 (>= l_1_6_3 0.0))
(assert
 (>= l_1_6_4 0.0))
(assert
 (>= l_1_6_5 0.0))
(assert
 (>= l_1_6_6 0.0))
(assert
 (>= l_1_6_7 0.0))
(assert
 (>= l_1_6_8 0.0))
(assert
 (>= l_1_6_9 0.0))
(assert
 (>= l_1_6_10 0.0))
(assert
 false)
(assert
 (>= l_1_7_1 0.0))
(assert
 (>= l_1_7_2 0.0))
(assert
 (>= l_1_7_3 0.0))
(assert
 (>= l_1_7_4 0.0))
(assert
 (>= l_1_7_5 0.0))
(assert
 (>= l_1_7_6 0.0))
(assert
 (>= l_1_7_7 0.0))
(assert
 (>= l_1_7_8 0.0))
(assert
 (>= l_1_7_9 0.0))
(assert
 (>= l_1_7_10 0.0))
(assert
 (>= l_1_7_11 0.0))
(assert
 (>= l_1_7_12 0.0))
(assert
 (= (+ (+ (- (+ (- l_1_8_1) l_1_8_2) l_1_8_5) l_1_8_6) 1.0) 0.0))
(assert
 (= (- (- (- l_1_8_1 l_1_8_2) l_1_8_8) 1.0) 0.0))
(assert
 (= (- (+ (* (- (/ 1.0 2.0)) l_1_8_3) (* (/ 1.0 2.0) l_1_8_4)) l_1_8_5) 0.0))
(assert
 (= (- (- l_1_8_3 l_1_8_4) l_1_8_8) 0.0))
(assert
 (= (+ (- l_1_8_5 l_1_8_6) l_1_8_8) 0.0))
(assert
 (= (- l_1_8_7) 0.0))
(assert
 (= l_1_8_7 0.0))
(assert
 (= (- (- (- l_1_8_10) (* l_1_8_11 l_1_8_11)) l_1_8_9) 0.0))
(assert
 (>= l_1_8_1 0.0))
(assert
 (>= l_1_8_2 0.0))
(assert
 (>= l_1_8_3 0.0))
(assert
 (>= l_1_8_4 0.0))
(assert
 (>= l_1_8_5 0.0))
(assert
 (>= l_1_8_6 0.0))
(assert
 (>= l_1_8_7 0.0))
(assert
 (>= l_1_8_8 0.0))
(assert
 (>= l_1_8_9 0.0))
(assert
 (>= l_1_8_10 0.0))
(assert
 (>= l_1_8_11 0.0))
(assert
 (= (+ (- (- l_1_9_1 l_1_9_2) l_1_9_8) 1.0) 0.0))
(assert
 (= (- (+ (- (+ (- l_1_9_1) l_1_9_2) l_1_9_5) l_1_9_6) 1.0) 0.0))
(assert
 (= (- (+ (* (- (/ 1.0 2.0)) l_1_9_3) (* (/ 1.0 2.0) l_1_9_4)) l_1_9_5) 0.0))
(assert
 (= (- (- l_1_9_3 l_1_9_4) l_1_9_8) 0.0))
(assert
 (= (+ (- l_1_9_5 l_1_9_6) l_1_9_8) 0.0))
(assert
 (= (- l_1_9_7) 0.0))
(assert
 (= l_1_9_7 0.0))
(assert
 (let ((?x771 (- (- (- (- l_1_9_10) l_1_9_11) l_1_9_12) (* l_1_9_13 l_1_9_13))))
 (= (- ?x771 l_1_9_9) 0.0)))
(assert
 (>= l_1_9_1 0.0))
(assert
 (>= l_1_9_2 0.0))
(assert
 (>= l_1_9_3 0.0))
(assert
 (>= l_1_9_4 0.0))
(assert
 (>= l_1_9_5 0.0))
(assert
 (>= l_1_9_6 0.0))
(assert
 (>= l_1_9_7 0.0))
(assert
 (>= l_1_9_8 0.0))
(assert
 (>= l_1_9_9 0.0))
(assert
 (>= l_1_9_10 0.0))
(assert
 (>= l_1_9_11 0.0))
(assert
 (>= l_1_9_12 0.0))
(assert
 (>= l_1_9_13 0.0))
(assert
 (let ((?x749 (+ (- (+ (* (- (/ 1.0 2.0)) l_1_10_3) (* (/ 1.0 2.0) l_1_10_4)) l_1_10_5) (/ 1.0 4.0))))
 (= ?x749 0.0)))
(assert
 (= (- (- (- l_1_10_3 l_1_10_4) l_1_10_8) (/ 1.0 2.0)) 0.0))
(assert
 (= (+ (- (+ (- l_1_10_1) l_1_10_2) l_1_10_5) l_1_10_6) 0.0))
(assert
 (= (- (- l_1_10_1 l_1_10_2) l_1_10_8) 0.0))
(assert
 (= (+ (- l_1_10_5 l_1_10_6) l_1_10_8) 0.0))
(assert
 (= (- l_1_10_7) 0.0))
(assert
 (= l_1_10_7 0.0))
(assert
 (let ((?x104 (- (- (- (- (- l_1_10_10) l_1_10_11) l_1_10_12) l_1_10_13) l_1_10_14)))
 (= (- (- ?x104 (* l_1_10_15 l_1_10_15)) l_1_10_9) 0.0)))
(assert
 (>= l_1_10_1 0.0))
(assert
 (>= l_1_10_2 0.0))
(assert
 (>= l_1_10_3 0.0))
(assert
 (>= l_1_10_4 0.0))
(assert
 (>= l_1_10_5 0.0))
(assert
 (>= l_1_10_6 0.0))
(assert
 (>= l_1_10_7 0.0))
(assert
 (>= l_1_10_8 0.0))
(assert
 (>= l_1_10_9 0.0))
(assert
 (>= l_1_10_10 0.0))
(assert
 (>= l_1_10_11 0.0))
(assert
 (>= l_1_10_12 0.0))
(assert
 (>= l_1_10_13 0.0))
(assert
 (>= l_1_10_14 0.0))
(assert
 (>= l_1_10_15 0.0))
(assert
 (= (+ (- (- l_1_11_3 l_1_11_4) l_1_11_8) (/ 1.0 2.0)) 0.0))
(assert
 (let ((?x710 (- (- (+ (* (- (/ 1.0 2.0)) l_1_11_3) (* (/ 1.0 2.0) l_1_11_4)) l_1_11_5) (/ 1.0 4.0))))
 (= ?x710 0.0)))
(assert
 (= (+ (- (+ (- l_1_11_1) l_1_11_2) l_1_11_5) l_1_11_6) 0.0))
(assert
 (= (- (- l_1_11_1 l_1_11_2) l_1_11_8) 0.0))
(assert
 (= (+ (- l_1_11_5 l_1_11_6) l_1_11_8) 0.0))
(assert
 (= (- l_1_11_7) 0.0))
(assert
 (= l_1_11_7 0.0))
(assert
 (let ((?x95 (- (- (- (- (- l_1_11_10) l_1_11_11) l_1_11_12) l_1_11_13) l_1_11_14)))
 (let ((?x690 (- (- (- (- ?x95 l_1_11_15) l_1_11_16) (* l_1_11_17 l_1_11_17)) l_1_11_9)))
 (= ?x690 0.0))))
(assert
 (>= l_1_11_1 0.0))
(assert
 (>= l_1_11_2 0.0))
(assert
 (>= l_1_11_3 0.0))
(assert
 (>= l_1_11_4 0.0))
(assert
 (>= l_1_11_5 0.0))
(assert
 (>= l_1_11_6 0.0))
(assert
 (>= l_1_11_7 0.0))
(assert
 (>= l_1_11_8 0.0))
(assert
 (>= l_1_11_9 0.0))
(assert
 (>= l_1_11_10 0.0))
(assert
 (>= l_1_11_11 0.0))
(assert
 (>= l_1_11_12 0.0))
(assert
 (>= l_1_11_13 0.0))
(assert
 (>= l_1_11_14 0.0))
(assert
 (>= l_1_11_15 0.0))
(assert
 (>= l_1_11_16 0.0))
(assert
 (>= l_1_11_17 0.0))
(assert
 (= (+ (+ (- (+ (- l_1_12_1) l_1_12_2) l_1_12_5) l_1_12_6) 1.0) 0.0))
(assert
 (= (- (+ (- l_1_12_5 l_1_12_6) l_1_12_8) 1.0) 0.0))
(assert
 (let ((?x659 (+ (- (+ (* (- (/ 1.0 2.0)) l_1_12_3) (* (/ 1.0 2.0) l_1_12_4)) l_1_12_5) (/ 1.0 2.0))))
 (= ?x659 0.0)))
(assert
 (= (- (- l_1_12_1 l_1_12_2) l_1_12_8) 0.0))
(assert
 (= (- (- l_1_12_3 l_1_12_4) l_1_12_8) 0.0))
(assert
 (= (- l_1_12_7) 0.0))
(assert
 (= l_1_12_7 0.0))
(assert
 (let ((?x652 (- (- (- (- (- l_1_12_10) l_1_12_11) l_1_12_12) l_1_12_13) l_1_12_14)))
 (let ((?x649 (- (- (- (- (- ?x652 l_1_12_15) l_1_12_16) l_1_12_17) l_1_12_18) (* l_1_12_19 l_1_12_19))))
 (= (- ?x649 l_1_12_9) 0.0))))
(assert
 (>= l_1_12_1 0.0))
(assert
 (>= l_1_12_2 0.0))
(assert
 (>= l_1_12_3 0.0))
(assert
 (>= l_1_12_4 0.0))
(assert
 (>= l_1_12_5 0.0))
(assert
 (>= l_1_12_6 0.0))
(assert
 (>= l_1_12_7 0.0))
(assert
 (>= l_1_12_8 0.0))
(assert
 (>= l_1_12_9 0.0))
(assert
 (>= l_1_12_10 0.0))
(assert
 (>= l_1_12_11 0.0))
(assert
 (>= l_1_12_12 0.0))
(assert
 (>= l_1_12_13 0.0))
(assert
 (>= l_1_12_14 0.0))
(assert
 (>= l_1_12_15 0.0))
(assert
 (>= l_1_12_16 0.0))
(assert
 (>= l_1_12_17 0.0))
(assert
 (>= l_1_12_18 0.0))
(assert
 (>= l_1_12_19 0.0))
(assert
 (= (+ (+ (- l_1_13_5 l_1_13_6) l_1_13_8) 1.0) 0.0))
(assert
 (= (- (+ (- (+ (- l_1_13_1) l_1_13_2) l_1_13_5) l_1_13_6) 1.0) 0.0))
(assert
 (= (- (- l_1_13_1 l_1_13_2) l_1_13_8) 0.0))
(assert
 (= (- (+ (* (- (/ 1.0 2.0)) l_1_13_3) (* (/ 1.0 2.0) l_1_13_4)) l_1_13_5) 0.0))
(assert
 (= (- (- l_1_13_3 l_1_13_4) l_1_13_8) 0.0))
(assert
 (= (- l_1_13_7) 0.0))
(assert
 (= l_1_13_7 0.0))
(assert
 (let ((?x611 (- (- (- (- (- l_1_13_10) l_1_13_11) l_1_13_12) l_1_13_13) l_1_13_14)))
 (let ((?x65 (- (- (- (- (- ?x611 l_1_13_15) l_1_13_16) l_1_13_17) l_1_13_18) l_1_13_19)))
 (= (- (- (- ?x65 l_1_13_20) (* l_1_13_21 l_1_13_21)) l_1_13_9) 0.0))))
(assert
 (>= l_1_13_1 0.0))
(assert
 (>= l_1_13_2 0.0))
(assert
 (>= l_1_13_3 0.0))
(assert
 (>= l_1_13_4 0.0))
(assert
 (>= l_1_13_5 0.0))
(assert
 (>= l_1_13_6 0.0))
(assert
 (>= l_1_13_7 0.0))
(assert
 (>= l_1_13_8 0.0))
(assert
 (>= l_1_13_9 0.0))
(assert
 (>= l_1_13_10 0.0))
(assert
 (>= l_1_13_11 0.0))
(assert
 (>= l_1_13_12 0.0))
(assert
 (>= l_1_13_13 0.0))
(assert
 (>= l_1_13_14 0.0))
(assert
 (>= l_1_13_15 0.0))
(assert
 (>= l_1_13_16 0.0))
(assert
 (>= l_1_13_17 0.0))
(assert
 (>= l_1_13_18 0.0))
(assert
 (>= l_1_13_19 0.0))
(assert
 (>= l_1_13_20 0.0))
(assert
 (>= l_1_13_21 0.0))
(assert
 (= (+ (+ (- (+ (- l_1_14_1) l_1_14_2) l_1_14_5) l_1_14_6) 1.0) 0.0))
(assert
 (let ((?x58 (+ (- (+ (* (- (/ 1.0 2.0)) l_1_14_3) (* (/ 1.0 2.0) l_1_14_4)) l_1_14_5) (/ 1.0 2.0))))
 (= ?x58 0.0)))
(assert
 (= (- (+ (- l_1_14_1 l_1_14_2) l_1_14_8) 1.0) 0.0))
(assert
 (= (- (+ (- l_1_14_3 l_1_14_4) l_1_14_8) 1.0) 0.0))
(assert
 (= (- (- l_1_14_5 l_1_14_6) l_1_14_8) 0.0))
(assert
 (= (- l_1_14_7) 0.0))
(assert
 (= l_1_14_7 0.0))
(assert
 (= (- (- (- l_1_14_10) (* l_1_14_11 l_1_14_11)) l_1_14_9) 0.0))
(assert
 (>= l_1_14_1 0.0))
(assert
 (>= l_1_14_2 0.0))
(assert
 (>= l_1_14_3 0.0))
(assert
 (>= l_1_14_4 0.0))
(assert
 (>= l_1_14_5 0.0))
(assert
 (>= l_1_14_6 0.0))
(assert
 (>= l_1_14_7 0.0))
(assert
 (>= l_1_14_8 0.0))
(assert
 (>= l_1_14_9 0.0))
(assert
 (>= l_1_14_10 0.0))
(assert
 (>= l_1_14_11 0.0))
(assert
 (= (+ (+ (- l_1_15_1 l_1_15_2) l_1_15_8) 1.0) 0.0))
(assert
 (= (+ (+ (- l_1_15_3 l_1_15_4) l_1_15_8) 1.0) 0.0))
(assert
 (= (- (+ (- (+ (- l_1_15_1) l_1_15_2) l_1_15_5) l_1_15_6) 1.0) 0.0))
(assert
 (let ((?x475 (- (- (+ (* (- (/ 1.0 2.0)) l_1_15_3) (* (/ 1.0 2.0) l_1_15_4)) l_1_15_5) (/ 1.0 2.0))))
 (= ?x475 0.0)))
(assert
 (= (- (- l_1_15_5 l_1_15_6) l_1_15_8) 0.0))
(assert
 (= (- l_1_15_7) 0.0))
(assert
 (= l_1_15_7 0.0))
(assert
 (let ((?x469 (- (- (- (- l_1_15_10) l_1_15_11) l_1_15_12) (* l_1_15_13 l_1_15_13))))
 (= (- ?x469 l_1_15_9) 0.0)))
(assert
 (>= l_1_15_1 0.0))
(assert
 (>= l_1_15_2 0.0))
(assert
 (>= l_1_15_3 0.0))
(assert
 (>= l_1_15_4 0.0))
(assert
 (>= l_1_15_5 0.0))
(assert
 (>= l_1_15_6 0.0))
(assert
 (>= l_1_15_7 0.0))
(assert
 (>= l_1_15_8 0.0))
(assert
 (>= l_1_15_9 0.0))
(assert
 (>= l_1_15_10 0.0))
(assert
 (>= l_1_15_11 0.0))
(assert
 (>= l_1_15_12 0.0))
(assert
 (>= l_1_15_13 0.0))
(assert
 (let ((?x426 (+ (- (+ (* (- (/ 1.0 2.0)) l_1_16_3) (* (/ 1.0 2.0) l_1_16_4)) l_1_16_5) (/ 1.0 4.0))))
 (= ?x426 0.0)))
(assert
 (= (- (+ (- l_1_16_3 l_1_16_4) l_1_16_8) (/ 1.0 2.0)) 0.0))
(assert
 (= (+ (- (+ (- l_1_16_1) l_1_16_2) l_1_16_5) l_1_16_6) 0.0))
(assert
 (= (+ (- l_1_16_1 l_1_16_2) l_1_16_8) 0.0))
(assert
 (= (- (- l_1_16_5 l_1_16_6) l_1_16_8) 0.0))
(assert
 (= (- l_1_16_7) 0.0))
(assert
 (= l_1_16_7 0.0))
(assert
 (let ((?x23 (- (- (- (- (- l_1_16_10) l_1_16_11) l_1_16_12) l_1_16_13) l_1_16_14)))
 (= (- (- ?x23 (* l_1_16_15 l_1_16_15)) l_1_16_9) 0.0)))
(assert
 (>= l_1_16_1 0.0))
(assert
 (>= l_1_16_2 0.0))
(assert
 (>= l_1_16_3 0.0))
(assert
 (>= l_1_16_4 0.0))
(assert
 (>= l_1_16_5 0.0))
(assert
 (>= l_1_16_6 0.0))
(assert
 (>= l_1_16_7 0.0))
(assert
 (>= l_1_16_8 0.0))
(assert
 (>= l_1_16_9 0.0))
(assert
 (>= l_1_16_10 0.0))
(assert
 (>= l_1_16_11 0.0))
(assert
 (>= l_1_16_12 0.0))
(assert
 (>= l_1_16_13 0.0))
(assert
 (>= l_1_16_14 0.0))
(assert
 (>= l_1_16_15 0.0))
(assert
 (= (+ (+ (- l_1_17_3 l_1_17_4) l_1_17_8) (/ 1.0 2.0)) 0.0))
(assert
 (let ((?x16 (- (- (+ (* (- (/ 1.0 2.0)) l_1_17_3) (* (/ 1.0 2.0) l_1_17_4)) l_1_17_5) (/ 1.0 4.0))))
 (= ?x16 0.0)))
(assert
 (= (+ (- (+ (- l_1_17_1) l_1_17_2) l_1_17_5) l_1_17_6) 0.0))
(assert
 (= (+ (- l_1_17_1 l_1_17_2) l_1_17_8) 0.0))
(assert
 (= (- (- l_1_17_5 l_1_17_6) l_1_17_8) 0.0))
(assert
 (= (- l_1_17_7) 0.0))
(assert
 (= l_1_17_7 0.0))
(assert
 (let ((?x12 (- (- (- (- (- l_1_17_10) l_1_17_11) l_1_17_12) l_1_17_13) l_1_17_14)))
 (let ((?x312 (- (- (- (- ?x12 l_1_17_15) l_1_17_16) (* l_1_17_17 l_1_17_17)) l_1_17_9)))
 (= ?x312 0.0))))
(assert
 (>= l_1_17_1 0.0))
(assert
 (>= l_1_17_2 0.0))
(assert
 (>= l_1_17_3 0.0))
(assert
 (>= l_1_17_4 0.0))
(assert
 (>= l_1_17_5 0.0))
(assert
 (>= l_1_17_6 0.0))
(assert
 (>= l_1_17_7 0.0))
(assert
 (>= l_1_17_8 0.0))
(assert
 (>= l_1_17_9 0.0))
(assert
 (>= l_1_17_10 0.0))
(assert
 (>= l_1_17_11 0.0))
(assert
 (>= l_1_17_12 0.0))
(assert
 (>= l_1_17_13 0.0))
(assert
 (>= l_1_17_14 0.0))
(assert
 (>= l_1_17_15 0.0))
(assert
 (>= l_1_17_16 0.0))
(assert
 (>= l_1_17_17 0.0))
(assert
 (= (+ (+ (- (+ (- l_1_18_1) l_1_18_2) l_1_18_5) l_1_18_6) 1.0) 0.0))
(assert
 (let ((?x1252 (+ (- (+ (* (- (/ 1.0 2.0)) l_1_18_3) (* (/ 1.0 2.0) l_1_18_4)) l_1_18_5) 1.0)))
 (= ?x1252 0.0)))
(assert
 (= (- (- (- l_1_18_5 l_1_18_6) l_1_18_8) 1.0) 0.0))
(assert
 (= (+ (- l_1_18_1 l_1_18_2) l_1_18_8) 0.0))
(assert
 (= (+ (- l_1_18_3 l_1_18_4) l_1_18_8) 0.0))
(assert
 (= (- l_1_18_7) 0.0))
(assert
 (= l_1_18_7 0.0))
(assert
 (let ((?x1271 (- (- (- (- (- l_1_18_10) l_1_18_11) l_1_18_12) l_1_18_13) l_1_18_14)))
 (let ((?x1277 (- (- (- (- (- ?x1271 l_1_18_15) l_1_18_16) l_1_18_17) l_1_18_18) (* l_1_18_19 l_1_18_19))))
 (= (- ?x1277 l_1_18_9) 0.0))))
(assert
 (>= l_1_18_1 0.0))
(assert
 (>= l_1_18_2 0.0))
(assert
 (>= l_1_18_3 0.0))
(assert
 (>= l_1_18_4 0.0))
(assert
 (>= l_1_18_5 0.0))
(assert
 (>= l_1_18_6 0.0))
(assert
 (>= l_1_18_7 0.0))
(assert
 (>= l_1_18_8 0.0))
(assert
 (>= l_1_18_9 0.0))
(assert
 (>= l_1_18_10 0.0))
(assert
 (>= l_1_18_11 0.0))
(assert
 (>= l_1_18_12 0.0))
(assert
 (>= l_1_18_13 0.0))
(assert
 (>= l_1_18_14 0.0))
(assert
 (>= l_1_18_15 0.0))
(assert
 (>= l_1_18_16 0.0))
(assert
 (>= l_1_18_17 0.0))
(assert
 (>= l_1_18_18 0.0))
(assert
 (>= l_1_18_19 0.0))
(assert
 (= (+ (- (- l_1_19_5 l_1_19_6) l_1_19_8) 1.0) 0.0))
(assert
 (= (- (+ (- (+ (- l_1_19_1) l_1_19_2) l_1_19_5) l_1_19_6) 1.0) 0.0))
(assert
 (let ((?x1313 (- (- (+ (* (- (/ 1.0 2.0)) l_1_19_3) (* (/ 1.0 2.0) l_1_19_4)) l_1_19_5) (/ 1.0 2.0))))
 (= ?x1313 0.0)))
(assert
 (= (+ (- l_1_19_1 l_1_19_2) l_1_19_8) 0.0))
(assert
 (= (+ (- l_1_19_3 l_1_19_4) l_1_19_8) 0.0))
(assert
 (= (- l_1_19_7) 0.0))
(assert
 (= l_1_19_7 0.0))
(assert
 (let ((?x1328 (- (- (- (- (- l_1_19_10) l_1_19_11) l_1_19_12) l_1_19_13) l_1_19_14)))
 (let ((?x1333 (- (- (- (- (- ?x1328 l_1_19_15) l_1_19_16) l_1_19_17) l_1_19_18) l_1_19_19)))
 (= (- (- (- ?x1333 l_1_19_20) (* l_1_19_21 l_1_19_21)) l_1_19_9) 0.0))))
(assert
 (>= l_1_19_1 0.0))
(assert
 (>= l_1_19_2 0.0))
(assert
 (>= l_1_19_3 0.0))
(assert
 (>= l_1_19_4 0.0))
(assert
 (>= l_1_19_5 0.0))
(assert
 (>= l_1_19_6 0.0))
(assert
 (>= l_1_19_7 0.0))
(assert
 (>= l_1_19_8 0.0))
(assert
 (>= l_1_19_9 0.0))
(assert
 (>= l_1_19_10 0.0))
(assert
 (>= l_1_19_11 0.0))
(assert
 (>= l_1_19_12 0.0))
(assert
 (>= l_1_19_13 0.0))
(assert
 (>= l_1_19_14 0.0))
(assert
 (>= l_1_19_15 0.0))
(assert
 (>= l_1_19_16 0.0))
(assert
 (>= l_1_19_17 0.0))
(assert
 (>= l_1_19_18 0.0))
(assert
 (>= l_1_19_19 0.0))
(assert
 (>= l_1_19_20 0.0))
(assert
 (>= l_1_19_21 0.0))
(check-sat)
(get-model)